p wcnf 166 332 333 
1 -112 -27 0 
1 89 -147 0 
1 56 -151 0 
1 112 -164 0 
1 -55 132 0 
1 101 -75 0 
1 -162 158 0 
1 87 -156 0 
1 -83 -121 0 
1 92 136 0 
1 121 72 0 
1 8 -29 0 
1 -83 15 0 
1 143 -157 0 
1 -107 91 0 
1 -21 115 0 
1 153 -63 0 
1 -111 -140 0 
1 38 74 0 
1 40 111 0 
1 -166 -103 0 
1 -8 -81 0 
1 -149 103 0 
1 -80 153 0 
1 -116 86 0 
1 -33 -102 0 
1 -42 -151 0 
1 -51 74 0 
1 -117 110 0 
1 -154 28 0 
1 -30 69 0 
1 155 -154 0 
1 138 161 0 
1 -34 86 0 
1 -93 51 0 
1 -113 27 0 
1 38 -158 0 
1 -25 45 0 
1 31 -88 0 
1 -54 5 0 
1 22 72 0 
1 8 -21 0 
1 -67 -44 0 
1 -52 104 0 
1 -86 89 0 
1 121 -157 0 
1 4 38 0 
1 60 -148 0 
1 55 -49 0 
1 1 61 0 
1 -156 -72 0 
1 -111 -163 0 
1 68 2 0 
1 118 83 0 
1 45 -99 0 
1 93 121 0 
1 -148 38 0 
1 -96 164 0 
1 -160 -104 0 
1 -22 49 0 
1 -142 102 0 
1 11 102 0 
1 -30 -58 0 
1 -22 -26 0 
1 -31 -104 0 
1 -96 -3 0 
1 -78 119 0 
1 156 -65 0 
1 63 143 0 
1 134 160 0 
1 -122 91 0 
1 70 -101 0 
1 -140 -32 0 
1 -140 1 0 
1 -39 -86 0 
1 -33 92 0 
1 51 83 0 
1 -113 -96 0 
1 112 12 0 
1 56 -99 0 
1 136 51 0 
1 162 -47 0 
1 -40 -96 0 
1 -143 -100 0 
1 8 -28 0 
1 -58 48 0 
1 137 -102 0 
1 100 -118 0 
1 117 99 0 
1 13 143 0 
1 -89 -103 0 
1 15 -63 0 
1 98 -42 0 
1 69 -152 0 
1 144 148 0 
1 -28 -66 0 
1 56 73 0 
1 -84 -109 0 
1 162 -69 0 
1 116 -85 0 
1 78 -122 0 
1 63 -61 0 
1 150 59 0 
1 -130 64 0 
1 72 -46 0 
1 24 6 0 
1 -70 -72 0 
1 1 130 0 
1 -26 -18 0 
1 -138 110 0 
1 -129 36 0 
1 22 32 0 
1 -41 161 0 
1 -51 148 0 
1 -156 24 0 
1 46 20 0 
1 32 -117 0 
1 44 -33 0 
1 -127 100 0 
1 -24 51 0 
1 -59 140 0 
1 -156 78 0 
1 136 -56 0 
1 -57 153 0 
1 53 19 0 
1 -76 -9 0 
1 -96 -77 0 
1 -150 99 0 
1 -118 -61 0 
1 152 -146 0 
1 74 -103 0 
1 -18 126 0 
1 -125 153 0 
1 -151 155 0 
1 -103 -155 0 
1 46 118 0 
1 -37 114 0 
1 155 -18 0 
1 -106 -63 0 
1 -87 -47 0 
1 23 -100 0 
1 -60 -92 0 
1 125 -26 0 
1 -96 -152 0 
1 -85 153 0 
1 113 30 0 
1 59 -115 0 
1 68 104 0 
1 -24 -114 0 
1 -80 73 0 
1 -128 162 0 
1 45 152 0 
1 -141 12 0 
1 50 83 0 
1 17 -142 0 
1 39 -90 0 
1 -130 27 0 
1 -26 -128 0 
1 143 109 0 
1 101 -163 0 
1 -4 136 0 
1 -109 114 0 
1 144 -150 0 
1 -154 -1 0 
1 146 -1 0 
1 100 125 0 
1 152 -85 0 
1 100 31 0 
1 -19 -2 0 
1 119 13 0 
1 -67 132 0 
1 -30 140 0 
1 -45 11 0 
1 -128 -147 0 
1 -147 -75 0 
1 158 165 0 
1 -61 108 0 
1 -33 146 0 
1 -116 66 0 
1 112 -55 0 
1 33 -8 0 
1 60 109 0 
1 -90 143 0 
1 125 -44 0 
1 91 -30 0 
1 150 -128 0 
1 124 36 0 
1 -13 -136 0 
1 -60 74 0 
1 -20 140 0 
1 96 149 0 
1 165 -102 0 
1 -145 -61 0 
1 -45 64 0 
1 158 -135 0 
1 -129 20 0 
1 35 -159 0 
1 46 -89 0 
1 -99 110 0 
1 118 -49 0 
1 -36 -25 0 
1 -101 45 0 
1 -1 146 0 
1 29 -13 0 
1 -135 124 0 
1 119 68 0 
1 -102 146 0 
1 -10 -19 0 
1 114 13 0 
1 89 -21 0 
1 -10 137 0 
1 -46 102 0 
1 69 156 0 
1 -106 123 0 
1 29 -34 0 
1 35 162 0 
1 -37 164 0 
1 137 -5 0 
1 -90 -150 0 
1 153 74 0 
1 -108 -148 0 
1 113 42 0 
1 -159 -81 0 
1 104 -97 0 
1 81 -54 0 
1 -8 -146 0 
1 -24 -59 0 
1 -31 -151 0 
1 -133 31 0 
1 -6 82 0 
1 90 138 0 
1 48 -79 0 
1 131 -4 0 
1 -78 -150 0 
1 116 -156 0 
1 31 162 0 
1 -133 -16 0 
1 -86 142 0 
1 65 79 0 
1 149 -102 0 
1 155 14 0 
1 88 135 0 
1 56 15 0 
1 -124 -13 0 
1 121 83 0 
1 -149 -91 0 
1 -126 -93 0 
1 -9 -105 0 
1 52 -79 0 
1 103 -150 0 
1 -45 106 0 
1 -30 5 0 
1 4 -155 0 
1 -93 -106 0 
1 -11 96 0 
1 46 156 0 
1 -83 92 0 
1 -111 -31 0 
1 -33 148 0 
1 -126 -116 0 
1 -81 79 0 
1 103 -22 0 
1 -25 -57 0 
1 83 -164 0 
1 -137 -76 0 
1 -37 -105 0 
1 -129 74 0 
1 -86 -97 0 
1 -160 83 0 
1 -29 -65 0 
1 -148 58 0 
1 136 48 0 
1 -123 -86 0 
1 46 -135 0 
1 55 -6 0 
1 -156 1 0 
1 146 32 0 
1 -125 -70 0 
1 -142 -85 0 
1 115 -61 0 
1 -120 -7 0 
1 109 127 0 
1 146 -152 0 
1 -137 -53 0 
1 10 -143 0 
1 124 88 0 
1 -154 87 0 
1 -29 42 0 
1 127 86 0 
1 -122 -17 0 
1 -37 -158 0 
1 122 158 0 
1 -96 -1 0 
1 38 -137 0 
1 -33 -97 0 
1 14 24 0 
1 -25 109 0 
1 -128 82 0 
1 132 88 0 
1 -111 81 0 
1 88 45 0 
1 -161 23 0 
1 161 -162 0 
1 57 -157 0 
1 15 62 0 
1 99 139 0 
1 -20 143 0 
1 123 -1 0 
1 79 -127 0 
1 -1 -116 0 
1 102 90 0 
1 95 -18 0 
1 -135 12 0 
1 3 -92 0 
1 145 84 0 
1 -100 -33 0 
1 128 -33 0 
1 -121 60 0 
1 84 46 0 
1 -56 -74 0 
1 -139 -3 0 
1 59 -33 0 
1 162 112 0 
1 166 -98 0 
1 44 143 0 
1 -131 136 0 
1 151 -107 0 
1 158 10 0 
1 24 -158 0 
1 -38 160 0 
1 123 -105 0 
1 -113 58 0 
